NAME
ROWS
 N  OBJ
 G  c1
 G  c2
 G  c3
 G  c4
 G  c5
 G  c6
 G  c7
 G  c8
 G  c9
 G  c10
 G  c11
 G  c12
 G  c13
 G  c14
 G  c15
 G  c16
 G  c17
 G  c18
 G  c19
 G  c20
 G  c21
 G  c22
 G  c23
 G  c24
 G  c25
 G  c26
 G  c27
 G  c28
 G  c29
 G  c30
 G  c31
 G  c32
 G  c33
 G  c34
 G  c35
 G  c36
 G  c37
 G  c38
 G  c39
 G  c40
 G  c41
 G  c42
 G  c43
 G  c44
 G  c45
 G  c46
 G  c47
 G  c48
 G  c49
 G  c50
 G  c51
 G  c52
 G  c53
 G  c54
 G  c55
 G  c56
 G  c57
 G  c58
 G  c59
 G  c60
 G  c61
 G  c62
 G  c63
 G  c64
 G  c65
 G  c66
 G  c67
 G  c68
 G  c69
 G  c70
COLUMNS
    MARKER    'MARKER'                 'INTORG'
    x[1]      c1        1
    x[1]      c8        1
    x[1]      c26       1
    x[1]      c29       1
    x[1]      c34       1
    x[1]      c36       1
    x[1]      c43       1
    x[1]      c54       1
    x[1]      c65       1
    x[1]      c70       1
    x[1]      OBJ       1
    x[2]      c2        1
    x[2]      c7        1
    x[2]      c15       1
    x[2]      c32       1
    x[2]      c44       1
    x[2]      c49       1
    x[2]      c56       1
    x[2]      c60       1
    x[2]      c66       1
    x[2]      c70       1
    x[2]      OBJ       1
    x[3]      c3        1
    x[3]      c25       1
    x[3]      c30       1
    x[3]      c37       1
    x[3]      c49       1
    x[3]      c50       1
    x[3]      c57       1
    x[3]      c61       1
    x[3]      OBJ       1
    x[4]      c4        1
    x[4]      c7        1
    x[4]      c9        1
    x[4]      c21       1
    x[4]      c27       1
    x[4]      c32       1
    x[4]      c39       1
    x[4]      c45       1
    x[4]      OBJ       1
    x[5]      c5        1
    x[5]      c13       1
    x[5]      c15       1
    x[5]      c19       1
    x[5]      c39       1
    x[5]      c40       1
    x[5]      c46       1
    x[5]      c52       1
    x[5]      c55       1
    x[5]      OBJ       1
    x[6]      c6        1
    x[6]      c12       1
    x[6]      c20       1
    x[6]      c25       1
    x[6]      c27       1
    x[6]      c37       1
    x[6]      c39       1
    x[6]      c44       1
    x[6]      c46       1
    x[6]      OBJ       1
    x[7]      c2        1
    x[7]      c4        1
    x[7]      c7        1
    x[7]      c8        1
    x[7]      c12       1
    x[7]      c19       1
    x[7]      c20       1
    x[7]      c24       1
    x[7]      c33       1
    x[7]      c48       1
    x[7]      c64       1
    x[7]      OBJ       1
    x[8]      c1        1
    x[8]      c7        1
    x[8]      c8        1
    x[8]      c12       1
    x[8]      c26       1
    x[8]      c35       1
    x[8]      c42       1
    x[8]      c46       1
    x[8]      c58       1
    x[8]      c68       1
    x[8]      c69       1
    x[8]      OBJ       1
    x[9]      c4        1
    x[9]      c9        1
    x[9]      c13       1
    x[9]      c22       1
    x[9]      c27       1
    x[9]      c37       1
    x[9]      c42       1
    x[9]      c49       1
    x[9]      c52       1
    x[9]      c59       1
    x[9]      c64       1
    x[9]      OBJ       1
    x[10]     c10       1
    x[10]     c11       1
    x[10]     c18       1
    x[10]     c20       1
    x[10]     c32       1
    x[10]     c51       1
    x[10]     OBJ       1
    x[11]     c10       1
    x[11]     c11       1
    x[11]     c24       1
    x[11]     c49       1
    x[11]     c50       1
    x[11]     c55       1
    x[11]     c56       1
    x[11]     c61       1
    x[11]     c65       1
    x[11]     OBJ       1
    x[12]     c6        1
    x[12]     c7        1
    x[12]     c8        1
    x[12]     c12       1
    x[12]     c26       1
    x[12]     c32       1
    x[12]     c34       1
    x[12]     c36       1
    x[12]     c38       1
    x[12]     c46       1
    x[12]     c58       1
    x[12]     c65       1
    x[12]     OBJ       1
    x[13]     c5        1
    x[13]     c9        1
    x[13]     c13       1
    x[13]     c46       1
    x[13]     c51       1
    x[13]     c59       1
    x[13]     OBJ       1
    x[14]     c14       1
    x[14]     c29       1
    x[14]     c34       1
    x[14]     c40       1
    x[14]     c44       1
    x[14]     c48       1
    x[14]     c49       1
    x[14]     c51       1
    x[14]     c63       1
    x[14]     c65       1
    x[14]     c67       1
    x[14]     OBJ       1
    x[15]     c2        1
    x[15]     c5        1
    x[15]     c15       1
    x[15]     c20       1
    x[15]     c23       1
    x[15]     c49       1
    x[15]     c63       1
    x[15]     c67       1
    x[15]     c70       1
    x[15]     OBJ       1
    x[16]     c16       1
    x[16]     c26       1
    x[16]     c27       1
    x[16]     c34       1
    x[16]     c38       1
    x[16]     c61       1
    x[16]     c66       1
    x[16]     OBJ       1
    x[17]     c17       1
    x[17]     c32       1
    x[17]     c45       1
    x[17]     c52       1
    x[17]     OBJ       1
    x[18]     c10       1
    x[18]     c18       1
    x[18]     c20       1
    x[18]     c45       1
    x[18]     c57       1
    x[18]     c61       1
    x[18]     OBJ       1
    x[19]     c5        1
    x[19]     c7        1
    x[19]     c19       1
    x[19]     c21       1
    x[19]     c28       1
    x[19]     c47       1
    x[19]     c49       1
    x[19]     c54       1
    x[19]     OBJ       1
    x[20]     c6        1
    x[20]     c7        1
    x[20]     c10       1
    x[20]     c15       1
    x[20]     c18       1
    x[20]     c20       1
    x[20]     c29       1
    x[20]     c61       1
    x[20]     c62       1
    x[20]     OBJ       1
    x[21]     c4        1
    x[21]     c19       1
    x[21]     c21       1
    x[21]     c37       1
    x[21]     c45       1
    x[21]     c48       1
    x[21]     OBJ       1
    x[22]     c9        1
    x[22]     c22       1
    x[22]     c57       1
    x[22]     c59       1
    x[22]     c66       1
    x[22]     OBJ       1
    x[23]     c15       1
    x[23]     c23       1
    x[23]     c26       1
    x[23]     c36       1
    x[23]     c44       1
    x[23]     c48       1
    x[23]     c52       1
    x[23]     OBJ       1
    x[24]     c7        1
    x[24]     c11       1
    x[24]     c24       1
    x[24]     c33       1
    x[24]     OBJ       1
    x[25]     c3        1
    x[25]     c6        1
    x[25]     c25       1
    x[25]     c67       1
    x[25]     OBJ       1
    x[26]     c1        1
    x[26]     c8        1
    x[26]     c12       1
    x[26]     c16       1
    x[26]     c23       1
    x[26]     c26       1
    x[26]     c38       1
    x[26]     c61       1
    x[26]     OBJ       1
    x[27]     c4        1
    x[27]     c6        1
    x[27]     c9        1
    x[27]     c16       1
    x[27]     c27       1
    x[27]     c34       1
    x[27]     c40       1
    x[27]     c43       1
    x[27]     c58       1
    x[27]     c69       1
    x[27]     OBJ       1
    x[28]     c19       1
    x[28]     c28       1
    x[28]     c31       1
    x[28]     c43       1
    x[28]     c46       1
    x[28]     c65       1
    x[28]     c67       1
    x[28]     c69       1
    x[28]     OBJ       1
    x[29]     c1        1
    x[29]     c14       1
    x[29]     c20       1
    x[29]     c29       1
    x[29]     c33       1
    x[29]     c67       1
    x[29]     OBJ       1
    x[30]     c3        1
    x[30]     c30       1
    x[30]     c32       1
    x[30]     c48       1
    x[30]     c55       1
    x[30]     c57       1
    x[30]     OBJ       1
    x[31]     c28       1
    x[31]     c31       1
    x[31]     c39       1
    x[31]     c41       1
    x[31]     c50       1
    x[31]     OBJ       1
    x[32]     c2        1
    x[32]     c4        1
    x[32]     c10       1
    x[32]     c12       1
    x[32]     c17       1
    x[32]     c30       1
    x[32]     c32       1
    x[32]     OBJ       1
    x[33]     c7        1
    x[33]     c24       1
    x[33]     c29       1
    x[33]     c33       1
    x[33]     c47       1
    x[33]     OBJ       1
    x[34]     c1        1
    x[34]     c12       1
    x[34]     c14       1
    x[34]     c16       1
    x[34]     c27       1
    x[34]     c34       1
    x[34]     c39       1
    x[34]     c41       1
    x[34]     c44       1
    x[34]     OBJ       1
    x[35]     c8        1
    x[35]     c35       1
    x[35]     c45       1
    x[35]     c50       1
    x[35]     c52       1
    x[35]     c54       1
    x[35]     c59       1
    x[35]     c64       1
    x[35]     c68       1
    x[35]     OBJ       1
    x[36]     c1        1
    x[36]     c12       1
    x[36]     c23       1
    x[36]     c36       1
    x[36]     c58       1
    x[36]     c59       1
    x[36]     c62       1
    x[36]     OBJ       1
    x[37]     c3        1
    x[37]     c6        1
    x[37]     c9        1
    x[37]     c21       1
    x[37]     c37       1
    x[37]     OBJ       1
    x[38]     c12       1
    x[38]     c16       1
    x[38]     c26       1
    x[38]     c38       1
    x[38]     c58       1
    x[38]     c66       1
    x[38]     c68       1
    x[38]     OBJ       1
    x[39]     c4        1
    x[39]     c5        1
    x[39]     c6        1
    x[39]     c31       1
    x[39]     c34       1
    x[39]     c39       1
    x[39]     c52       1
    x[39]     c60       1
    x[39]     OBJ       1
    x[40]     c5        1
    x[40]     c14       1
    x[40]     c27       1
    x[40]     c40       1
    x[40]     c56       1
    x[40]     OBJ       1
    x[41]     c31       1
    x[41]     c34       1
    x[41]     c41       1
    x[41]     c62       1
    x[41]     c64       1
    x[41]     c65       1
    x[41]     OBJ       1
    x[42]     c8        1
    x[42]     c9        1
    x[42]     c42       1
    x[42]     c54       1
    x[42]     c70       1
    x[42]     OBJ       1
    x[43]     c1        1
    x[43]     c27       1
    x[43]     c28       1
    x[43]     c43       1
    x[43]     c54       1
    x[43]     c60       1
    x[43]     c62       1
    x[43]     c64       1
    x[43]     OBJ       1
    x[44]     c2        1
    x[44]     c6        1
    x[44]     c14       1
    x[44]     c23       1
    x[44]     c34       1
    x[44]     c44       1
    x[44]     c51       1
    x[44]     c57       1
    x[44]     c70       1
    x[44]     OBJ       1
    x[45]     c4        1
    x[45]     c17       1
    x[45]     c18       1
    x[45]     c21       1
    x[45]     c35       1
    x[45]     c45       1
    x[45]     c48       1
    x[45]     c49       1
    x[45]     c54       1
    x[45]     OBJ       1
    x[46]     c5        1
    x[46]     c6        1
    x[46]     c8        1
    x[46]     c12       1
    x[46]     c13       1
    x[46]     c28       1
    x[46]     c46       1
    x[46]     c55       1
    x[46]     c56       1
    x[46]     c57       1
    x[46]     c60       1
    x[46]     c63       1
    x[46]     OBJ       1
    x[47]     c19       1
    x[47]     c33       1
    x[47]     c47       1
    x[47]     c54       1
    x[47]     c63       1
    x[47]     c68       1
    x[47]     OBJ       1
    x[48]     c7        1
    x[48]     c14       1
    x[48]     c21       1
    x[48]     c23       1
    x[48]     c30       1
    x[48]     c45       1
    x[48]     c48       1
    x[48]     c54       1
    x[48]     c58       1
    x[48]     c62       1
    x[48]     c68       1
    x[48]     OBJ       1
    x[49]     c2        1
    x[49]     c3        1
    x[49]     c9        1
    x[49]     c11       1
    x[49]     c14       1
    x[49]     c15       1
    x[49]     c19       1
    x[49]     c45       1
    x[49]     c49       1
    x[49]     c51       1
    x[49]     c52       1
    x[49]     c60       1
    x[49]     c65       1
    x[49]     OBJ       1
    x[50]     c3        1
    x[50]     c11       1
    x[50]     c31       1
    x[50]     c35       1
    x[50]     c50       1
    x[50]     c54       1
    x[50]     c56       1
    x[50]     c58       1
    x[50]     OBJ       1
    x[51]     c10       1
    x[51]     c13       1
    x[51]     c14       1
    x[51]     c44       1
    x[51]     c49       1
    x[51]     c51       1
    x[51]     c55       1
    x[51]     c65       1
    x[51]     OBJ       1
    x[52]     c5        1
    x[52]     c9        1
    x[52]     c17       1
    x[52]     c23       1
    x[52]     c35       1
    x[52]     c39       1
    x[52]     c49       1
    x[52]     c52       1
    x[52]     c54       1
    x[52]     c64       1
    x[52]     OBJ       1
    x[53]     c53       1
    x[53]     OBJ       1
    x[54]     c1        1
    x[54]     c19       1
    x[54]     c35       1
    x[54]     c42       1
    x[54]     c43       1
    x[54]     c45       1
    x[54]     c47       1
    x[54]     c48       1
    x[54]     c50       1
    x[54]     c52       1
    x[54]     c54       1
    x[54]     c57       1
    x[54]     c66       1
    x[54]     c70       1
    x[54]     OBJ       1
    x[55]     c5        1
    x[55]     c11       1
    x[55]     c30       1
    x[55]     c46       1
    x[55]     c51       1
    x[55]     c55       1
    x[55]     c59       1
    x[55]     c64       1
    x[55]     c67       1
    x[55]     OBJ       1
    x[56]     c2        1
    x[56]     c11       1
    x[56]     c40       1
    x[56]     c46       1
    x[56]     c50       1
    x[56]     c56       1
    x[56]     c67       1
    x[56]     OBJ       1
    x[57]     c3        1
    x[57]     c18       1
    x[57]     c22       1
    x[57]     c30       1
    x[57]     c44       1
    x[57]     c46       1
    x[57]     c54       1
    x[57]     c57       1
    x[57]     c70       1
    x[57]     OBJ       1
    x[58]     c8        1
    x[58]     c12       1
    x[58]     c27       1
    x[58]     c36       1
    x[58]     c38       1
    x[58]     c48       1
    x[58]     c50       1
    x[58]     c58       1
    x[58]     c60       1
    x[58]     OBJ       1
    x[59]     c9        1
    x[59]     c13       1
    x[59]     c22       1
    x[59]     c35       1
    x[59]     c36       1
    x[59]     c55       1
    x[59]     c59       1
    x[59]     OBJ       1
    x[60]     c2        1
    x[60]     c39       1
    x[60]     c43       1
    x[60]     c46       1
    x[60]     c49       1
    x[60]     c58       1
    x[60]     c60       1
    x[60]     c67       1
    x[60]     OBJ       1
    x[61]     c3        1
    x[61]     c11       1
    x[61]     c16       1
    x[61]     c18       1
    x[61]     c20       1
    x[61]     c26       1
    x[61]     c61       1
    x[61]     c63       1
    x[61]     c65       1
    x[61]     OBJ       1
    x[62]     c20       1
    x[62]     c36       1
    x[62]     c41       1
    x[62]     c43       1
    x[62]     c48       1
    x[62]     c62       1
    x[62]     OBJ       1
    x[63]     c14       1
    x[63]     c15       1
    x[63]     c46       1
    x[63]     c47       1
    x[63]     c61       1
    x[63]     c63       1
    x[63]     OBJ       1
    x[64]     c7        1
    x[64]     c9        1
    x[64]     c35       1
    x[64]     c41       1
    x[64]     c43       1
    x[64]     c52       1
    x[64]     c55       1
    x[64]     c64       1
    x[64]     c67       1
    x[64]     c70       1
    x[64]     OBJ       1
    x[65]     c1        1
    x[65]     c11       1
    x[65]     c12       1
    x[65]     c14       1
    x[65]     c28       1
    x[65]     c41       1
    x[65]     c49       1
    x[65]     c51       1
    x[65]     c61       1
    x[65]     c65       1
    x[65]     OBJ       1
    x[66]     c2        1
    x[66]     c16       1
    x[66]     c22       1
    x[66]     c38       1
    x[66]     c54       1
    x[66]     c66       1
    x[66]     c68       1
    x[66]     OBJ       1
    x[67]     c14       1
    x[67]     c15       1
    x[67]     c25       1
    x[67]     c28       1
    x[67]     c29       1
    x[67]     c55       1
    x[67]     c56       1
    x[67]     c60       1
    x[67]     c64       1
    x[67]     c67       1
    x[67]     OBJ       1
    x[68]     c8        1
    x[68]     c35       1
    x[68]     c38       1
    x[68]     c47       1
    x[68]     c48       1
    x[68]     c66       1
    x[68]     c68       1
    x[68]     c70       1
    x[68]     OBJ       1
    x[69]     c8        1
    x[69]     c27       1
    x[69]     c28       1
    x[69]     c69       1
    x[69]     OBJ       1
    x[70]     c1        1
    x[70]     c2        1
    x[70]     c15       1
    x[70]     c42       1
    x[70]     c44       1
    x[70]     c54       1
    x[70]     c57       1
    x[70]     c64       1
    x[70]     c68       1
    x[70]     c70       1
    x[70]     OBJ       1
    MARKER    'MARKER'                 'INTEND'
RHS
    rhs       c1        1
    rhs       c2        1
    rhs       c3        1
    rhs       c4        1
    rhs       c5        1
    rhs       c6        1
    rhs       c7        1
    rhs       c8        1
    rhs       c9        1
    rhs       c10       1
    rhs       c11       1
    rhs       c12       1
    rhs       c13       1
    rhs       c14       1
    rhs       c15       1
    rhs       c16       1
    rhs       c17       1
    rhs       c18       1
    rhs       c19       1
    rhs       c20       1
    rhs       c21       1
    rhs       c22       1
    rhs       c23       1
    rhs       c24       1
    rhs       c25       1
    rhs       c26       1
    rhs       c27       1
    rhs       c28       1
    rhs       c29       1
    rhs       c30       1
    rhs       c31       1
    rhs       c32       1
    rhs       c33       1
    rhs       c34       1
    rhs       c35       1
    rhs       c36       1
    rhs       c37       1
    rhs       c38       1
    rhs       c39       1
    rhs       c40       1
    rhs       c41       1
    rhs       c42       1
    rhs       c43       1
    rhs       c44       1
    rhs       c45       1
    rhs       c46       1
    rhs       c47       1
    rhs       c48       1
    rhs       c49       1
    rhs       c50       1
    rhs       c51       1
    rhs       c52       1
    rhs       c53       1
    rhs       c54       1
    rhs       c55       1
    rhs       c56       1
    rhs       c57       1
    rhs       c58       1
    rhs       c59       1
    rhs       c60       1
    rhs       c61       1
    rhs       c62       1
    rhs       c63       1
    rhs       c64       1
    rhs       c65       1
    rhs       c66       1
    rhs       c67       1
    rhs       c68       1
    rhs       c69       1
    rhs       c70       1
RANGES
BOUNDS
 BV bounds    x[1]
 BV bounds    x[2]
 BV bounds    x[3]
 BV bounds    x[4]
 BV bounds    x[5]
 BV bounds    x[6]
 BV bounds    x[7]
 BV bounds    x[8]
 BV bounds    x[9]
 BV bounds    x[10]
 BV bounds    x[11]
 BV bounds    x[12]
 BV bounds    x[13]
 BV bounds    x[14]
 BV bounds    x[15]
 BV bounds    x[16]
 BV bounds    x[17]
 BV bounds    x[18]
 BV bounds    x[19]
 BV bounds    x[20]
 BV bounds    x[21]
 BV bounds    x[22]
 BV bounds    x[23]
 BV bounds    x[24]
 BV bounds    x[25]
 BV bounds    x[26]
 BV bounds    x[27]
 BV bounds    x[28]
 BV bounds    x[29]
 BV bounds    x[30]
 BV bounds    x[31]
 BV bounds    x[32]
 BV bounds    x[33]
 BV bounds    x[34]
 BV bounds    x[35]
 BV bounds    x[36]
 BV bounds    x[37]
 BV bounds    x[38]
 BV bounds    x[39]
 BV bounds    x[40]
 BV bounds    x[41]
 BV bounds    x[42]
 BV bounds    x[43]
 BV bounds    x[44]
 BV bounds    x[45]
 BV bounds    x[46]
 BV bounds    x[47]
 BV bounds    x[48]
 BV bounds    x[49]
 BV bounds    x[50]
 BV bounds    x[51]
 BV bounds    x[52]
 BV bounds    x[53]
 BV bounds    x[54]
 BV bounds    x[55]
 BV bounds    x[56]
 BV bounds    x[57]
 BV bounds    x[58]
 BV bounds    x[59]
 BV bounds    x[60]
 BV bounds    x[61]
 BV bounds    x[62]
 BV bounds    x[63]
 BV bounds    x[64]
 BV bounds    x[65]
 BV bounds    x[66]
 BV bounds    x[67]
 BV bounds    x[68]
 BV bounds    x[69]
 BV bounds    x[70]
ENDATA
